61
100
70	13
69	11
68	10
67	4
66	7
65	4
64	10
63	3
62	5
61	8
60	2
59	8
58	8
57	7
56	9
55	7
54	4
53	10
52	8
51	11
50	8
49	11
48	7
47	5
46	5
45	6
44	4
43	10
42	9
41	13
40	6
39	6
38	11
37	13
36	4
35	12
34	9
33	3
32	8
31	11
30	5
29	7
28	9
27	10
26	17
25	14
24	8
23	7
22	10
21	11
20	7
19	7
18	9
17	10
16	8
15	8
14	10
13	7
12	11
11	9
10	6
